\* tutorial *\
Maximize
z: 4 x1 + 3 x2 + 2 x3
Subject To
co2: x1 >= 1
co2.2: x2 >= 1
r1: 6 x1 + 4 x2 + 3 x3 <= 8.5
r2: 2 x1 + x2 + 2 x3 <= 3
r3: 4 x1 + 2 x2 + 3 x3 <= 7
Bounds
 x1 <= 1
 x2 <= 1
 x3 <= 1
End
